QBPP_HJ-_35_025_20_5
35 86 1848
14 20 44 45 2 6 20 29 5 38 6 23 44 47 10 12 40 1 39 27 50 12 37 17 5 17 20 23 35 16 33 43 41 2 31
     0     0     0     0     0     0     0   -12     0    -7   -55     0     0     0     0   -25     0   -64   -42     0     0   -34     0     0     0     0     0     0     0     0     0     0     0   -96     0
     0     0     0     0   -31     0     0     0     0     0     0     0     0     0     0     0     0     0     0     0     0     0   -73     0   -54     0     0   -85     0   -87     0     0   -90     0     0
     0     0     0   -33     0     0     0     0     0     0     0  -100   -87     0     0     0     0     0     0     0     0     0   -38   -56     0     0     0     0     0     0     0     0     0     0     0
     0     0   -33     0   -99     0     0     0     0     0   -25   -51     0   -34     0     0     0     0   -86     0   -34     0     0     0     0     0   -78     0   -70     0   -63     0    -7     0   -94
     0   -31     0   -99     0   -69   -94   -89     0     0     0   -93     0     0     0     0     0     0     0     0     0     0     0     0     0     0     0     0   -30     0     0     0     0     0     0
     0     0     0     0   -69     0     0     0   -75     0     0     0     0     0     0   -67   -52     0     0     0     0     0     0     0     0     0     0     0     0     0     0   -32     0     0     0
     0     0     0     0   -94     0     0     0     0     0     0     0     0     0     0     0     0     0     0     0     0     0     0     0     0     0     0   -15   -85     0   -44     0   -56     0     0
   -12     0     0     0   -89     0     0     0     0  -100     0     0     0     0     0   -35   -16     0   -93     0   -63     0     0   -24     0     0     0     0     0     0     0   -53   -23     0     0
     0     0     0     0     0   -75     0     0     0     0   -10     0   -98   -26     0   -11     0   -62    -6   -45     0    -8     0   -50     0     0     0     0     0     0     0     0    -9   -94     0
    -7     0     0     0     0     0     0  -100     0     0     0   -83   -41     0     0     0     0     0   -98   -65     0   -61     0     0     0     0    -5     0     0   -14     0     0     0     0   -99
   -55     0     0   -25     0     0     0     0   -10     0     0     0     0     0     0     0     0     0   -79     0   -12     0   -98     0     0     0     0     0     0     0   -15   -57   -18     0   -85
     0     0  -100   -51   -93     0     0     0     0   -83     0     0    -6     0     0     0     0     0     0     0     0     0     0   -81     0    -2   -96     0     0     0     0     0     0   -13   -20
     0     0   -87     0     0     0     0     0   -98   -41     0    -6     0     0     0     0     0     0     0     0     0     0     0     0   -29     0     0     0     0     0     0     0   -64   -86     0
     0     0     0   -34     0     0     0     0   -26     0     0     0     0     0     0   -80     0   -31     0     0     0     0     0    -6     0     0   -14     0     0     0     0     0     0     0     0
     0     0     0     0     0     0     0     0     0     0     0     0     0     0     0     0     0     0     0   -52    -8   -10     0     0   -42   -36     0     0     0   -74     0     0     0   -34     0
   -25     0     0     0     0   -67     0   -35   -11     0     0     0     0   -80     0     0     0   -57     0     0     0     0     0     0     0     0     0   -87     0     0   -55     0   -18     0     0
     0     0     0     0     0   -52     0   -16     0     0     0     0     0     0     0     0     0     0   -59     0     0     0     0   -88     0     0     0     0     0     0    -4     0     0     0     0
   -64     0     0     0     0     0     0     0   -62     0     0     0     0   -31     0   -57     0     0     0   -73     0     0     0     0   -28     0     0     0     0     0     0     0   -86   -43   -66
   -42     0     0   -86     0     0     0   -93    -6   -98   -79     0     0     0     0     0   -59     0     0     0     0     0     0   -76     0     0   -74   -75   -80   -45     0     0     0     0     0
     0     0     0     0     0     0     0     0   -45   -65     0     0     0     0   -52     0     0   -73     0     0     0     0     0     0     0     0     0   -92     0     0     0     0     0     0     0
     0     0     0   -34     0     0     0   -63     0     0   -12     0     0     0    -8     0     0     0     0     0     0     0     0   -53   -17     0     0     0     0     0     0     0     0     0     0
   -34     0     0     0     0     0     0     0    -8   -61     0     0     0     0   -10     0     0     0     0     0     0     0   -10   -99     0     0     0     0     0     0     0     0   -62   -63     0
     0   -73   -38     0     0     0     0     0     0     0   -98     0     0     0     0     0     0     0     0     0     0   -10     0     0     0   -87     0     0    -6     0     0   -38   -20     0     0
     0     0   -56     0     0     0     0   -24   -50     0     0   -81     0    -6     0     0   -88     0   -76     0   -53   -99     0     0     0   -92     0     0     0   -92     0     0     0     0     0
     0   -54     0     0     0     0     0     0     0     0     0     0   -29     0   -42     0     0   -28     0     0   -17     0     0     0     0     0     0     0     0   -67     0     0     0     0     0
     0     0     0     0     0     0     0     0     0     0     0    -2     0     0   -36     0     0     0     0     0     0     0   -87   -92     0     0     0     0     0     0   -92     0     0     0     0
     0     0     0   -78     0     0     0     0     0    -5     0   -96     0   -14     0     0     0     0   -74     0     0     0     0     0     0     0     0     0     0     0     0     0     0   -69     0
     0   -85     0     0     0     0   -15     0     0     0     0     0     0     0     0   -87     0     0   -75   -92     0     0     0     0     0     0     0     0     0     0     0     0   -93     0     0
     0     0     0   -70   -30     0   -85     0     0     0     0     0     0     0     0     0     0     0   -80     0     0     0    -6     0     0     0     0     0     0     0     0   -46     0     0     0
     0   -87     0     0     0     0     0     0     0   -14     0     0     0     0   -74     0     0     0   -45     0     0     0     0   -92   -67     0     0     0     0     0     0     0   -43     0     0
     0     0     0   -63     0     0   -44     0     0     0   -15     0     0     0     0   -55    -4     0     0     0     0     0     0     0     0   -92     0     0     0     0     0   -18     0     0     0
     0     0     0     0     0   -32     0   -53     0     0   -57     0     0     0     0     0     0     0     0     0     0     0   -38     0     0     0     0     0   -46     0   -18     0     0   -10   -77
     0   -90     0    -7     0     0   -56   -23    -9     0   -18     0   -64     0     0   -18     0   -86     0     0     0   -62   -20     0     0     0     0   -93     0   -43     0     0     0     0     0
   -96     0     0     0     0     0     0     0   -94     0     0   -13   -86     0   -34     0     0   -43     0     0     0   -63     0     0     0     0   -69     0     0     0     0   -10     0     0   -63
     0     0     0   -94     0     0     0     0     0   -99   -85   -20     0     0     0     0     0   -66     0     0     0     0     0     0     0     0     0     0     0     0     0   -77     0   -63     0
